Name:		mgval_0.45_6C
Optimal value:	-1
#Vehicles:	10
Capacity:	50
Depot Node:	1
#Nodes:		31
#Edges:		23
#Arcs:		45
#Required N:	22
#Required E:	12
#Required A:	24

ReN.	DEMAND	S. COST
N2	14	14
N3	12	12
N4	8	8
N5	5	5
N6	10	10
N7	22	22
N10	5	5
N11	4	4
N12	3	3
N13	18	18
N16	4	4
N17	10	10
N18	9	9
N19	20	20
N20	11	11
N21	4	4
N23	16	16
N26	9	9
N28	11	11
N29	5	5
N30	17	17
N31	4	4

ReE.	FROM N.	TO N.	T. COST	DEMAND	S. COST
E12	8	12	8	14	14
E13	9	13	6	9	9
E14	10	11	4	10	10
E15	23	25	3	7	7
E16	3	9	2	5	5
E17	29	31	2	5	5
E18	8	9	7	12	12
E19	21	22	4	14	14
E20	6	31	3	9	9
E21	27	29	2	8	8
E22	24	27	2	5	5
E23	15	16	3	8	8

EDGE	FROM N.	TO N.	T. COST
NrE1	23	24	3
NrE2	26	27	1
NrE3	28	31	3
NrE4	4	13	3
NrE5	19	21	3
NrE6	3	4	5
NrE7	1	7	10
NrE8	1	31	3
NrE9	20	22	5
NrE10	13	19	6
NrE11	2	8	6

ReA.	FROM N.	TO N.	T. COST	DEMAND	S. COST
A22	19	18	5	5	5
A23	10	16	2	8	8
A24	2	1	2	3	3
A25	9	4	9	2	2
A26	14	15	5	3	3
A27	2	3	1	7	7
A28	19	22	2	9	9
A29	15	14	5	4	4
A30	1	2	2	2	2
A31	10	14	1	2	2
A32	31	5	1	2	2
A33	25	28	5	12	12
A34	7	8	3	14	14
A35	18	19	5	4	4
A36	12	18	5	6	6
A37	4	9	9	1	1
A38	11	6	2	6	6
A39	14	10	1	2	2
A40	29	28	3	9	9
A41	3	2	1	7	7
A42	12	11	5	5	5
A43	5	6	3	4	4
A44	5	31	1	2	2
A45	17	16	2	5	5

ARC	FROM N.	TO N.	T. COST
NrA1	1	30	4
NrA2	7	6	3
NrA3	30	1	4
NrA4	5	10	4
NrA5	29	30	7
NrA6	26	28	5
NrA7	13	12	4
NrA8	6	11	2
NrA9	10	5	4
NrA10	18	12	5
NrA11	6	5	3
NrA12	18	21	3
NrA13	17	11	4
NrA14	21	18	3
NrA15	23	26	2
NrA16	16	17	2
NrA17	30	29	7
NrA18	19	20	4
NrA19	28	26	5
NrA20	11	12	5
NrA21	12	13	4
